c --- [ banner ] -------------------------------------------------------------
c 
c CaDiCaL Radically Simplified CDCL SAT Solver
c Copyright (c) 2016-2021 A. Biere, M. Fleury, N. Froleyks
c 
c Version 1.5.2 a5f15211db36c3956764e18194dd5bd63bf3b5e6
c g++ (GCC) 9.3.0 -Wall -Wextra -O3 -DNDEBUG
c Fri Oct 21 01:27:37 EDT 2022 Linux gra-login3 3.10.0-1160.66.1.el7.x86_64 x86_64
c 
c --- [ limit ] --------------------------------------------------------------
c 
c setting conflict limit to 200000 conflicts (due to '200000')
c 
c --- [ parsing input ] ------------------------------------------------------
c 
c reading DIMACS file from '33.cubes5631.adj'
c opening file to read '33.cubes5631.adj'
c found 'p cnf 6160 1595481' header
c parsed 1595481 clauses in 20.65 seconds process time
c closing file '33.cubes5631.adj'
c after reading 1457566815 bytes 1390.0 MB
c 
c --- [ options ] ------------------------------------------------------------
c 
c all options are set to their default value
c 
c --- [ solving ] ------------------------------------------------------------
c 
c time measured in process time since initialization
c 
c  seconds    reductions  redundant   irredundant
c          MB     restarts       trail       variables
c            level   conflicts       glue         remaining
c 
c * 20.65 1382  0 0   0    0    0  0% 0 1595422 2292 37%
c { 21.98 1436  0 0   0    0    0  0% 0 1595422 2292 37%
c i 24.11 1492 630 0   7   58   47 32% 16 1595422 2291 37%
c i 26.54 1508 289 0  22  144  120 29% 18 1595422 2286 37%
c i 26.86 1508 221 0  23  199  149 28% 18 1595422 2281 37%
c i 27.27 1509 170 0  26  259  178 27% 16 1595422 2280 37%
c i 27.27 1510 169 0  26  260  178 27% 16 1595422 2279 37%
c i 27.57 1510 158 0  28  290  206 27% 18 1595422 2278 37%
c i 27.69 1510 155 0  30  299  213 27% 19 1595422 2277 37%
c - 31.32 1401 155 1  31  300  214 27% 19 219403 2277 37%
c i 31.57 1370 152 1  35  315  225 27% 20 219403 2276 37%
c i 31.58 1370 152 1  35  325  225 27% 19 219403 2266 37%
c i 31.77 1370 152 1  41  349  248 27% 25 219403 2265 37%
c i 31.81 1370 151 1  43  354  252 27% 25 219403 2264 37%
c i 32.25 1370 126 1  64  528  383 27% 27 219403 2263 37%
c i 32.31 1370 112 1  65  626  458 27% 27 219403 2261 37%
c i 32.42 1370 113 1  66  654  484 27% 27 219403 2260 37%
c i 32.50 1370 110 1  73  682  509 28% 27 219403 2259 37%
c i 32.52 1370 110 1  73  688  511 27% 27 219403 2256 37%
c i 32.52 1370 110 1  73  691  512 27% 27 219403 2254 37%
c 
c  seconds     reductions  redundant   irredundant
c          MB      restarts       trail       variables
c             level   conflicts       glue         remaining
c 
c i 32.59 1370 110 1  79  718  536 28% 28 219403 2253 37%
c i 32.59 1370 110 1  79  719  536 28% 28 219403 2252 37%
c i 32.59 1370 109 1  80  723  539 28% 28 219403 2251 37%
c i 32.66 1370 107 1  84  754  565 28% 27 219403 2250 37%
c i 32.79 1370 94 1  84  931  694 28% 25 219403 2249 37%
c i 32.82 1370 92 1  84  960  718 28% 25 219403 2248 36%
c } 32.87 1370 90 1  85 1000  750 28% 25 219403 2248 36%
c [ 32.87 1370  0 1  85 1000  750  0% 0 219403 2248 36%
c O 32.92 1370 24 1  85 1009  756 27% 18 219403 2248 36%
c - 33.54 1457  9 2  85 1106  694 21% 9 219320 2248 36%
c i 33.61 1457  8 2  85 1194  711 21% 8 219320 2247 36%
c i 33.61 1457  8 2  85 1195  711 21% 8 219320 2246 36%
c i 33.62 1457  8 2  85 1200  715 21% 8 219320 2245 36%
c i 33.69 1457 11 2  85 1258  758 24% 10 219320 2244 36%
c i 33.69 1457 11 2  85 1266  764 24% 10 219320 2243 36%
c i 33.70 1457 12 2  85 1278  773 24% 10 219320 2242 36%
c i 33.72 1457 14 2  85 1341  814 25% 12 219320 2241 36%
c i 33.77 1457 15 2  85 1428  886 27% 12 219320 2240 36%
c - 34.30 1456 19 3  86 2314 1163 30% 16 219298 2240 36%
c ] 34.52 1456 19 3  86 2329 1175 57% 16 219298 2240 36%
c 
c  seconds    reductions  redundant   irredundant
c          MB     restarts       trail       variables
c            level   conflicts       glue         remaining
c 
c 1 34.52 1456 19 3  86 2329 1175 57% 16 219298 2240 36%
c 
c --- [ writing output ] -----------------------------------------------------
c 
c writing simplified CNF to DIMACS file 'simp/33.cubes5631.adj.simp1'
c * 34.52 1456 19 3  86 2329 1175 57% 16 219298 2240 36%
c opening file to write 'simp/33.cubes5631.adj.simp1'
c writing 'p cnf 6160 219298' header
c closing file 'simp/33.cubes5631.adj.simp1'
c after writing 98546453 bytes 94.0 MB
c wrote 219298 clauses in 0.75 seconds process time
c 
c --- [ writing extension ] --------------------------------------------------
c 
c writing extension stack to 'simp/33.cubes5631.adj.ext1'
c opening file to write 'simp/33.cubes5631.adj.ext1'
c closing file 'simp/33.cubes5631.adj.ext1'
c after writing 11520 bytes 0.0 MB
c wrote 776 witnesses in 0.00 seconds process time
c 
c --- [ result ] -------------------------------------------------------------
c 
s SATISFIABLE
c 
c --- [ run-time profiling ] -------------------------------------------------
c 
c process time taken by individual solving procedures
c (percentage relative to process time for solving)
c 
c        20.65  148.93% parse
c        13.87  100.00% search
c        10.89   78.56% unstable
c         1.65   11.87% stable
c         1.33    9.57% lucky
c         0.00    0.00% simplify
c   =================================
c        13.87   39.32% solve
c 
c last line shows process time for solving
c (percentage relative to total process time)
c 
c --- [ statistics ] ---------------------------------------------------------
c 
c chronological:               598        25.68 %  of conflicts
c conflicts:                  2329       167.96    per second
c decisions:                 14553      1049.55    per second
c fixed:                       776        12.60 %  of all variables
c learned:                    2260        97.04 %  per conflict
c learned_lits:             359880       100.00 %  learned literals
c minimized:                     0         0.00 %  learned literals
c shrunken:                 150956        41.95 %  learned literals
c minishrunken:              59083        16.42 %  learned literals
c propagations:             326415         0.02 M  per second
c reduced:                     414        17.78 %  per conflict
c rephased:                      1      2329.00    interval
c restarts:                     86        27.08    interval
c stabilizing:                   1        57.06 %  of conflicts
c subsumed:                    627         0.02 %  of all clauses
c 
c seconds are measured in process time for solving
c 
c --- [ resources ] ----------------------------------------------------------
c 
c total process time since initialization:        35.27    seconds
c total real time since initialization:           36.40    seconds
c maximum resident set size of process:         1542.36    MB
c 
c --- [ shutting down ] ------------------------------------------------------
c 
c exit 10
WARNING! DIMACS header mismatch: wrong number of variables.
============================[ Problem Statistics ]=============================
|                                                                             |
|  Number of variables:          6120                                         |
|  Number of clauses:          219298                                         |
|  Parse time:                   1.30 s                                       |
|  Simplification time:          0.02 s                                       |
|                                                                             |
============================[ Search Statistics ]====================================================
| Conflicts |          ORIGINAL         |          LEARNT          | Num Sols |      SUBGRAPHS      |
|           |    Vars  Clauses Literals |    Limit  Clauses Lit/Cl |          | Canonical Noncanon. |
=====================================================================================================
|       108 |    6026   219306 21321670 |     2000      107     68 |        0 |        24         8 |
|       258 |    6024   219306 21321670 |     2000      255     93 |        0 |        32         8 |
|       485 |    6023   219308 21321701 |     2000      481     90 |        0 |        35        10 |
|       834 |    6022   219320 21321981 |     2000      829     99 |        0 |        46        22 |
|      1349 |    6021   219329 21322153 |     2000     1343    101 |        0 |        50        31 |
|      2166 |    6019   219387 21323320 |     3596     1162     61 |        0 |        75        89 |
|      3606 |    6018   219688 21329471 |     3596     2601     62 |        0 |       196       390 |
|      6061 |    6016   220435 21344249 |     5001     3261     54 |        0 |       406      1137 |
|      8725 |    5989   220537 21346377 |     6304     3428     44 |        0 |       436      1239 |
|     22502 |    5989   230470 21531795 |     9993     5895     35 |        0 |      1950     11172 |
|     31790 |    5989   233992 21600865 |    11202    10192     45 |        0 |      3033     14694 |
|     40778 |    5989   234331 21607192 |    13610     7388     26 |        0 |      3080     15033 |
|     54127 |    5989   234706 21614932 |    14812    13939     60 |        0 |      3147     15408 |
|     93455 |    5989   254573 22004969 |    20813    10268     19 |        0 |      6055     35275 |
|    128101 |    5989   260027 22111668 |    24416    11917     17 |        0 |      7184     40729 |
|    225210 |    5988   277361 19587197 |    31605    26815     16 |        0 |     12504     94049 |
|    304051 |    5988   290518 19796916 |    37616    20667     26 |        0 |     14038    107206 |
|    471197 |    5988   359138 20919083 |    46019    43616     46 |        0 |     23083    175826 |
|    928879 |    5972   669027 25446418 |    65206    61285     48 |        0 |     40135    485719 |
=====================================================================================================
Number of solutions   : 0
Canonical subgraphs   : 46750          (14 /sec)
          order  3    : 1              (200000 /sec)
          order  4    : 1              (500000 /sec)
          order  5    : 1              (200000 /sec)
          order  6    : 1              (52632 /sec)
          order  7    : 1              (8403 /sec)
          order  8    : 2              (1361 /sec)
          order  9    : 7              (353 /sec)
          order 10    : 37             (118 /sec)
          order 11    : 196            (51 /sec)
          order 12    : 317            (11 /sec)
          order 13    : 2353           (12 /sec)
          order 14    : 35101          (15 /sec)
          order 15    : 3791           (17 /sec)
          order 16    : 2334           (13 /sec)
          order 17    : 1805           (11 /sec)
          order 18    : 646            (8 /sec)
          order 19    : 135            (8 /sec)
          order 20    : 14             (12 /sec)
          order 21    : 7              (10 /sec)
          order 22    : 0              (-nan /sec)
Noncanonical subgraphs: 671636         (112 /sec)
          order  3    : 0              (-nan /sec)
          order  4    : 0              (-nan /sec)
          order  5    : 0              (-nan /sec)
          order  6    : 0              (-nan /sec)
          order  7    : 0              (-nan /sec)
          order  8    : 0              (-nan /sec)
          order  9    : 0              (-nan /sec)
          order 10    : 0              (-nan /sec)
          order 11    : 0              (-nan /sec)
          order 12    : 0              (-nan /sec)
          order 13    : 5721           (8873 /sec)
          order 14    : 66374          (932 /sec)
          order 15    : 595537         (101 /sec)
          order 16    : 2492           (139 /sec)
          order 17    : 661            (100 /sec)
          order 18    : 844            (68 /sec)
          order 19    : 0              (-nan /sec)
          order 20    : 0              (-nan /sec)
          order 21    : 0              (-nan /sec)
Canonicity checking   : 3265.94 s
Noncanonicity checking: 5985.04 s
Total canonicity time : 9250.98 s
database reductions   : 60
restarts              : 2266
conflicts             : 1196799        (124 /sec)
decisions             : 2082059        (0.00 % random) (216 /sec)
propagations          : 123872219      (12835 /sec)
conflict literals     : 62203390       (56.58 % deleted)
actual reward         : 0.080345
Memory used           : 399.00 MB
CPU time              : 9651.35 s

UNSATISFIABLE
